
Gurobi 11.0.3 (linux64) logging started Sat Nov 23 22:53:34 2024

Set parameter LogFile to value "/home/yihong/Coding/OR_SUC/SUC_results_bigM100000_thread4/case24_ieee_rts_theta0.1_epsilon0.025_gurobi_seed790000_num_gen100_N_WDR150_load_scaling_factor1_proposed_T24quadra_cost.txt"
Set parameter TimeLimit to value 3600
Gurobi Optimizer version 11.0.3 build v11.0.3rc0 (linux64 - "Ubuntu 20.04.6 LTS")

CPU model: AMD EPYC 7532 32-Core Processor, instruction set [SSE2|AVX|AVX2]
Thread count: 64 physical cores, 128 logical processors, using up to 4 threads

Optimize a model with 53864 rows, 29911 columns and 911262 nonzeros
Model fingerprint: 0xda8b7755
Model has 2400 quadratic constraints
Variable types: 27511 continuous, 2400 integer (2400 binary)
Coefficient statistics:
  Matrix range     [3e-04, 2e+03]
  QMatrix range    [2e-03, 8e-03]
  QLMatrix range   [8e-02, 6e+01]
  Objective range  [1e+00, 1e+00]
  Bounds range     [1e+00, 1e+00]
  RHS range        [1e+00, 9e+03]
Presolve removed 43714 rows and 12774 columns
Presolve time: 0.33s
Presolved: 10150 rows, 17137 columns, 53523 nonzeros
Presolved model has 2400 quadratic constraint(s)
Variable types: 14737 continuous, 2400 integer (2400 binary)

Root relaxation: objective 4.494052e+04, 8250 iterations, 0.22 seconds (0.31 work units)

    Nodes    |    Current Node    |     Objective Bounds      |     Work
 Expl Unexpl |  Obj  Depth IntInf | Incumbent    BestBd   Gap | It/Node Time

H    0     0                    675944.80556 44940.5186  93.4%     -    0s
*    0     0               0    675944.80556 44940.5186  93.4%     -    0s
     0     0 351460.558    0  848 675944.806 351460.558  48.0%     -    1s
     0     0 634325.118    0  471 675944.806 634325.118  6.16%     -    1s
     0     0 634393.798    0   32 675944.806 634393.798  6.15%     -    1s
     0     0 634529.420    0   26 675944.806 634529.420  6.13%     -    1s
     0     0 634536.593    0   26 675944.806 634536.593  6.13%     -    1s
     0     0 634536.593    0   26 675944.806 634536.593  6.13%     -    1s
     0     0 634537.628    0   26 675944.806 634537.628  6.13%     -    2s
     0     2 634537.628    0   26 675944.806 634537.628  6.13%     -    3s
H  132   174                    634819.79557 634560.020  0.04%  17.2    4s
*  132   174              41    634819.79557 634560.020  0.04%  17.3    4s

Cutting planes:
  Gomory: 27
  Lift-and-project: 15
  Implied bound: 243
  MIR: 15
  Flow cover: 185
  RLT: 332
  Relax-and-lift: 146

Explored 185 nodes (24926 simplex iterations) in 5.53 seconds (6.65 work units)
Thread count was 4 (of 128 available processors)

Solution count 3: 634820 634820 675945 

Optimal solution found (tolerance 1.00e-03)
Warning: max constraint violation (6.5439e-08) exceeds tolerance
Best objective 6.348197955704e+05, best bound 6.345600197613e+05, gap 0.0409%
